(set-info :category "industrial")
(set-info :status sat)
(declare-fun x01 () (_ BitVec 8))
(declare-fun x02 () (_ BitVec 8))
(declare-fun x03 () (_ BitVec 8))
(declare-fun x04 () (_ BitVec 8))
(declare-fun x06 () (_ BitVec 8))
(declare-fun x10 () (_ BitVec 8))
(declare-fun x11 () (_ BitVec 8))
(declare-fun x13 () (_ BitVec 8))
(declare-fun x15 () (_ BitVec 8))
(declare-fun x18 () (_ BitVec 8))
(declare-fun x20 () (_ BitVec 8))
(declare-fun x21 () (_ BitVec 8))
(declare-fun x22 () (_ BitVec 8))
(declare-fun x23 () (_ BitVec 8))
(declare-fun x24 () (_ BitVec 8))
(declare-fun x27 () (_ BitVec 8))
(declare-fun x30 () (_ BitVec 8))
(declare-fun x31 () (_ BitVec 8))
(declare-fun x35 () (_ BitVec 8))
(declare-fun x36 () (_ BitVec 8))
(declare-fun x37 () (_ BitVec 8))
(declare-fun x40 () (_ BitVec 8))
(declare-fun x43 () (_ BitVec 8))
(declare-fun x46 () (_ BitVec 8))
(declare-fun x47 () (_ BitVec 8))
(declare-fun x48 () (_ BitVec 8))
(declare-fun x50 () (_ BitVec 8))
(declare-fun x52 () (_ BitVec 8))
(declare-fun x53 () (_ BitVec 8))
(declare-fun x55 () (_ BitVec 8))
(declare-fun x56 () (_ BitVec 8))
(declare-fun x57 () (_ BitVec 8))
(declare-fun x61 () (_ BitVec 8))
(declare-fun x63 () (_ BitVec 8))
(declare-fun x64 () (_ BitVec 8))
(declare-fun x65 () (_ BitVec 8))
(declare-fun x66 () (_ BitVec 8))
(declare-fun x67 () (_ BitVec 8))
(declare-fun x68 () (_ BitVec 8))
(declare-fun x70 () (_ BitVec 8))
(declare-fun x75 () (_ BitVec 8))
(declare-fun x76 () (_ BitVec 8))
(declare-fun x78 () (_ BitVec 8))
(declare-fun x84 () (_ BitVec 8))
(declare-fun x85 () (_ BitVec 8))
(declare-fun x86 () (_ BitVec 8))
(declare-fun x88 () (_ BitVec 8))
(assert (bvult x01 (_ bv9 8)))
(assert (bvult x02 (_ bv9 8)))
(assert (bvult x03 (_ bv9 8)))
(assert (bvult x04 (_ bv9 8)))
(assert (bvult x06 (_ bv9 8)))
(assert (bvult x10 (_ bv9 8)))
(assert (bvult x11 (_ bv9 8)))
(assert (bvult x13 (_ bv9 8)))
(assert (bvult x15 (_ bv9 8)))
(assert (bvult x18 (_ bv9 8)))
(assert (bvult x20 (_ bv9 8)))
(assert (bvult x21 (_ bv9 8)))
(assert (bvult x22 (_ bv9 8)))
(assert (bvult x23 (_ bv9 8)))
(assert (bvult x24 (_ bv9 8)))
(assert (bvult x27 (_ bv9 8)))
(assert (bvult x30 (_ bv9 8)))
(assert (bvult x31 (_ bv9 8)))
(assert (bvult x35 (_ bv9 8)))
(assert (bvult x36 (_ bv9 8)))
(assert (bvult x37 (_ bv9 8)))
(assert (bvult x40 (_ bv9 8)))
(assert (bvult x43 (_ bv9 8)))
(assert (bvult x46 (_ bv9 8)))
(assert (bvult x47 (_ bv9 8)))
(assert (bvult x48 (_ bv9 8)))
(assert (bvult x50 (_ bv9 8)))
(assert (bvult x52 (_ bv9 8)))
(assert (bvult x53 (_ bv9 8)))
(assert (bvult x55 (_ bv9 8)))
(assert (bvult x56 (_ bv9 8)))
(assert (bvult x57 (_ bv9 8)))
(assert (bvult x61 (_ bv9 8)))
(assert (bvult x63 (_ bv9 8)))
(assert (bvult x64 (_ bv9 8)))
(assert (bvult x65 (_ bv9 8)))
(assert (bvult x66 (_ bv9 8)))
(assert (bvult x67 (_ bv9 8)))
(assert (bvult x68 (_ bv9 8)))
(assert (bvult x70 (_ bv9 8)))
(assert (bvult x75 (_ bv9 8)))
(assert (bvult x76 (_ bv9 8)))
(assert (bvult x78 (_ bv9 8)))
(assert (bvult x84 (_ bv9 8)))
(assert (bvult x85 (_ bv9 8)))
(assert (bvult x86 (_ bv9 8)))
(assert (bvult x88 (_ bv9 8)))
(assert (not (= (_ bv7 8) x01)))
(assert (not (= (_ bv7 8) x02)))
(assert (not (= (_ bv7 8) x03)))
(assert (not (= (_ bv7 8) x04)))
(assert (not (= (_ bv7 8) (_ bv8 8))))
(assert (not (= (_ bv7 8) x06)))
(assert (not (= (_ bv7 8) (_ bv1 8))))
(assert (not (= (_ bv7 8) (_ bv6 8))))
(assert (not (= x01 x02)))
(assert (not (= x01 x03)))
(assert (not (= x01 x04)))
(assert (not (= x01 (_ bv8 8))))
(assert (not (= x01 x06)))
(assert (not (= x01 (_ bv1 8))))
(assert (not (= x01 (_ bv6 8))))
(assert (not (= x02 x03)))
(assert (not (= x02 x04)))
(assert (not (= x02 (_ bv8 8))))
(assert (not (= x02 x06)))
(assert (not (= x02 (_ bv1 8))))
(assert (not (= x02 (_ bv6 8))))
(assert (not (= x03 x04)))
(assert (not (= x03 (_ bv8 8))))
(assert (not (= x03 x06)))
(assert (not (= x03 (_ bv1 8))))
(assert (not (= x03 (_ bv6 8))))
(assert (not (= x04 (_ bv8 8))))
(assert (not (= x04 x06)))
(assert (not (= x04 (_ bv1 8))))
(assert (not (= x04 (_ bv6 8))))
(assert (not (= (_ bv8 8) x06)))
(assert (not (= (_ bv8 8) (_ bv1 8))))
(assert (not (= (_ bv8 8) (_ bv6 8))))
(assert (not (= x06 (_ bv1 8))))
(assert (not (= x06 (_ bv6 8))))
(assert (not (= (_ bv1 8) (_ bv6 8))))
(assert (not (= x10 x11)))
(assert (not (= x10 (_ bv5 8))))
(assert (not (= x10 x13)))
(assert (not (= x10 (_ bv9 8))))
(assert (not (= x10 x15)))
(assert (not (= x10 (_ bv8 8))))
(assert (not (= x10 (_ bv7 8))))
(assert (not (= x10 x18)))
(assert (not (= x11 (_ bv5 8))))
(assert (not (= x11 x13)))
(assert (not (= x11 (_ bv9 8))))
(assert (not (= x11 x15)))
(assert (not (= x11 (_ bv8 8))))
(assert (not (= x11 (_ bv7 8))))
(assert (not (= x11 x18)))
(assert (not (= (_ bv5 8) x13)))
(assert (not (= (_ bv5 8) (_ bv9 8))))
(assert (not (= (_ bv5 8) x15)))
(assert (not (= (_ bv5 8) (_ bv8 8))))
(assert (not (= (_ bv5 8) (_ bv7 8))))
(assert (not (= (_ bv5 8) x18)))
(assert (not (= x13 (_ bv9 8))))
(assert (not (= x13 x15)))
(assert (not (= x13 (_ bv8 8))))
(assert (not (= x13 (_ bv7 8))))
(assert (not (= x13 x18)))
(assert (not (= (_ bv9 8) x15)))
(assert (not (= (_ bv9 8) (_ bv8 8))))
(assert (not (= (_ bv9 8) (_ bv7 8))))
(assert (not (= (_ bv9 8) x18)))
(assert (not (= x15 (_ bv8 8))))
(assert (not (= x15 (_ bv7 8))))
(assert (not (= x15 x18)))
(assert (not (= (_ bv8 8) (_ bv7 8))))
(assert (not (= (_ bv8 8) x18)))
(assert (not (= (_ bv7 8) x18)))
(assert (not (= x20 x21)))
(assert (not (= x20 x22)))
(assert (not (= x20 x23)))
(assert (not (= x20 x24)))
(assert (not (= x20 (_ bv2 8))))
(assert (not (= x20 (_ bv5 8))))
(assert (not (= x20 x27)))
(assert (not (= x20 (_ bv9 8))))
(assert (not (= x21 x22)))
(assert (not (= x21 x23)))
(assert (not (= x21 x24)))
(assert (not (= x21 (_ bv2 8))))
(assert (not (= x21 (_ bv5 8))))
(assert (not (= x21 x27)))
(assert (not (= x21 (_ bv9 8))))
(assert (not (= x22 x23)))
(assert (not (= x22 x24)))
(assert (not (= x22 (_ bv2 8))))
(assert (not (= x22 (_ bv5 8))))
(assert (not (= x22 x27)))
(assert (not (= x22 (_ bv9 8))))
(assert (not (= x23 x24)))
(assert (not (= x23 (_ bv2 8))))
(assert (not (= x23 (_ bv5 8))))
(assert (not (= x23 x27)))
(assert (not (= x23 (_ bv9 8))))
(assert (not (= x24 (_ bv2 8))))
(assert (not (= x24 (_ bv5 8))))
(assert (not (= x24 x27)))
(assert (not (= x24 (_ bv9 8))))
(assert (not (= (_ bv2 8) (_ bv5 8))))
(assert (not (= (_ bv2 8) x27)))
(assert (not (= (_ bv2 8) (_ bv9 8))))
(assert (not (= (_ bv5 8) x27)))
(assert (not (= (_ bv5 8) (_ bv9 8))))
(assert (not (= x27 (_ bv9 8))))
(assert (not (= x30 x31)))
(assert (not (= x30 (_ bv9 8))))
(assert (not (= x30 (_ bv7 8))))
(assert (not (= x30 (_ bv5 8))))
(assert (not (= x30 x35)))
(assert (not (= x30 x36)))
(assert (not (= x30 x37)))
(assert (not (= x30 (_ bv2 8))))
(assert (not (= x31 (_ bv9 8))))
(assert (not (= x31 (_ bv7 8))))
(assert (not (= x31 (_ bv5 8))))
(assert (not (= x31 x35)))
(assert (not (= x31 x36)))
(assert (not (= x31 x37)))
(assert (not (= x31 (_ bv2 8))))
(assert (not (= (_ bv9 8) (_ bv7 8))))
(assert (not (= (_ bv9 8) (_ bv5 8))))
(assert (not (= (_ bv9 8) x35)))
(assert (not (= (_ bv9 8) x36)))
(assert (not (= (_ bv9 8) x37)))
(assert (not (= (_ bv9 8) (_ bv2 8))))
(assert (not (= (_ bv7 8) (_ bv5 8))))
(assert (not (= (_ bv7 8) x35)))
(assert (not (= (_ bv7 8) x36)))
(assert (not (= (_ bv7 8) x37)))
(assert (not (= (_ bv7 8) (_ bv2 8))))
(assert (not (= (_ bv5 8) x35)))
(assert (not (= (_ bv5 8) x36)))
(assert (not (= (_ bv5 8) x37)))
(assert (not (= (_ bv5 8) (_ bv2 8))))
(assert (not (= x35 x36)))
(assert (not (= x35 x37)))
(assert (not (= x35 (_ bv2 8))))
(assert (not (= x36 x37)))
(assert (not (= x36 (_ bv2 8))))
(assert (not (= x37 (_ bv2 8))))
(assert (not (= x40 (_ bv8 8))))
(assert (not (= x40 (_ bv1 8))))
(assert (not (= x40 x43)))
(assert (not (= x40 (_ bv3 8))))
(assert (not (= x40 (_ bv9 8))))
(assert (not (= x40 x46)))
(assert (not (= x40 x47)))
(assert (not (= x40 x48)))
(assert (not (= (_ bv8 8) (_ bv1 8))))
(assert (not (= (_ bv8 8) x43)))
(assert (not (= (_ bv8 8) (_ bv3 8))))
(assert (not (= (_ bv8 8) (_ bv9 8))))
(assert (not (= (_ bv8 8) x46)))
(assert (not (= (_ bv8 8) x47)))
(assert (not (= (_ bv8 8) x48)))
(assert (not (= (_ bv1 8) x43)))
(assert (not (= (_ bv1 8) (_ bv3 8))))
(assert (not (= (_ bv1 8) (_ bv9 8))))
(assert (not (= (_ bv1 8) x46)))
(assert (not (= (_ bv1 8) x47)))
(assert (not (= (_ bv1 8) x48)))
(assert (not (= x43 (_ bv3 8))))
(assert (not (= x43 (_ bv9 8))))
(assert (not (= x43 x46)))
(assert (not (= x43 x47)))
(assert (not (= x43 x48)))
(assert (not (= (_ bv3 8) (_ bv9 8))))
(assert (not (= (_ bv3 8) x46)))
(assert (not (= (_ bv3 8) x47)))
(assert (not (= (_ bv3 8) x48)))
(assert (not (= (_ bv9 8) x46)))
(assert (not (= (_ bv9 8) x47)))
(assert (not (= (_ bv9 8) x48)))
(assert (not (= x46 x47)))
(assert (not (= x46 x48)))
(assert (not (= x47 x48)))
(assert (not (= x50 (_ bv2 8))))
(assert (not (= x50 x52)))
(assert (not (= x50 x53)))
(assert (not (= x50 (_ bv6 8))))
(assert (not (= x50 x55)))
(assert (not (= x50 x56)))
(assert (not (= x50 x57)))
(assert (not (= x50 (_ bv4 8))))
(assert (not (= (_ bv2 8) x52)))
(assert (not (= (_ bv2 8) x53)))
(assert (not (= (_ bv2 8) (_ bv6 8))))
(assert (not (= (_ bv2 8) x55)))
(assert (not (= (_ bv2 8) x56)))
(assert (not (= (_ bv2 8) x57)))
(assert (not (= (_ bv2 8) (_ bv4 8))))
(assert (not (= x52 x53)))
(assert (not (= x52 (_ bv6 8))))
(assert (not (= x52 x55)))
(assert (not (= x52 x56)))
(assert (not (= x52 x57)))
(assert (not (= x52 (_ bv4 8))))
(assert (not (= x53 (_ bv6 8))))
(assert (not (= x53 x55)))
(assert (not (= x53 x56)))
(assert (not (= x53 x57)))
(assert (not (= x53 (_ bv4 8))))
(assert (not (= (_ bv6 8) x55)))
(assert (not (= (_ bv6 8) x56)))
(assert (not (= (_ bv6 8) x57)))
(assert (not (= (_ bv6 8) (_ bv4 8))))
(assert (not (= x55 x56)))
(assert (not (= x55 x57)))
(assert (not (= x55 (_ bv4 8))))
(assert (not (= x56 x57)))
(assert (not (= x56 (_ bv4 8))))
(assert (not (= x57 (_ bv4 8))))
(assert (not (= (_ bv3 8) x61)))
(assert (not (= (_ bv3 8) (_ bv4 8))))
(assert (not (= (_ bv3 8) x63)))
(assert (not (= (_ bv3 8) x64)))
(assert (not (= (_ bv3 8) x65)))
(assert (not (= (_ bv3 8) x66)))
(assert (not (= (_ bv3 8) x67)))
(assert (not (= (_ bv3 8) x68)))
(assert (not (= x61 (_ bv4 8))))
(assert (not (= x61 x63)))
(assert (not (= x61 x64)))
(assert (not (= x61 x65)))
(assert (not (= x61 x66)))
(assert (not (= x61 x67)))
(assert (not (= x61 x68)))
(assert (not (= (_ bv4 8) x63)))
(assert (not (= (_ bv4 8) x64)))
(assert (not (= (_ bv4 8) x65)))
(assert (not (= (_ bv4 8) x66)))
(assert (not (= (_ bv4 8) x67)))
(assert (not (= (_ bv4 8) x68)))
(assert (not (= x63 x64)))
(assert (not (= x63 x65)))
(assert (not (= x63 x66)))
(assert (not (= x63 x67)))
(assert (not (= x63 x68)))
(assert (not (= x64 x65)))
(assert (not (= x64 x66)))
(assert (not (= x64 x67)))
(assert (not (= x64 x68)))
(assert (not (= x65 x66)))
(assert (not (= x65 x67)))
(assert (not (= x65 x68)))
(assert (not (= x66 x67)))
(assert (not (= x66 x68)))
(assert (not (= x67 x68)))
(assert (not (= x70 (_ bv5 8))))
(assert (not (= x70 (_ bv2 8))))
(assert (not (= x70 (_ bv6 8))))
(assert (not (= x70 (_ bv1 8))))
(assert (not (= x70 x75)))
(assert (not (= x70 x76)))
(assert (not (= x70 (_ bv3 8))))
(assert (not (= x70 x78)))
(assert (not (= (_ bv5 8) (_ bv2 8))))
(assert (not (= (_ bv5 8) (_ bv6 8))))
(assert (not (= (_ bv5 8) (_ bv1 8))))
(assert (not (= (_ bv5 8) x75)))
(assert (not (= (_ bv5 8) x76)))
(assert (not (= (_ bv5 8) (_ bv3 8))))
(assert (not (= (_ bv5 8) x78)))
(assert (not (= (_ bv2 8) (_ bv6 8))))
(assert (not (= (_ bv2 8) (_ bv1 8))))
(assert (not (= (_ bv2 8) x75)))
(assert (not (= (_ bv2 8) x76)))
(assert (not (= (_ bv2 8) (_ bv3 8))))
(assert (not (= (_ bv2 8) x78)))
(assert (not (= (_ bv6 8) (_ bv1 8))))
(assert (not (= (_ bv6 8) x75)))
(assert (not (= (_ bv6 8) x76)))
(assert (not (= (_ bv6 8) (_ bv3 8))))
(assert (not (= (_ bv6 8) x78)))
(assert (not (= (_ bv1 8) x75)))
(assert (not (= (_ bv1 8) x76)))
(assert (not (= (_ bv1 8) (_ bv3 8))))
(assert (not (= (_ bv1 8) x78)))
(assert (not (= x75 x76)))
(assert (not (= x75 (_ bv3 8))))
(assert (not (= x75 x78)))
(assert (not (= x76 (_ bv3 8))))
(assert (not (= x76 x78)))
(assert (not (= (_ bv3 8) x78)))
(assert (not (= (_ bv8 8) (_ bv1 8))))
(assert (not (= (_ bv8 8) (_ bv6 8))))
(assert (not (= (_ bv8 8) (_ bv4 8))))
(assert (not (= (_ bv8 8) x84)))
(assert (not (= (_ bv8 8) x85)))
(assert (not (= (_ bv8 8) x86)))
(assert (not (= (_ bv8 8) (_ bv5 8))))
(assert (not (= (_ bv8 8) x88)))
(assert (not (= (_ bv1 8) (_ bv6 8))))
(assert (not (= (_ bv1 8) (_ bv4 8))))
(assert (not (= (_ bv1 8) x84)))
(assert (not (= (_ bv1 8) x85)))
(assert (not (= (_ bv1 8) x86)))
(assert (not (= (_ bv1 8) (_ bv5 8))))
(assert (not (= (_ bv1 8) x88)))
(assert (not (= (_ bv6 8) (_ bv4 8))))
(assert (not (= (_ bv6 8) x84)))
(assert (not (= (_ bv6 8) x85)))
(assert (not (= (_ bv6 8) x86)))
(assert (not (= (_ bv6 8) (_ bv5 8))))
(assert (not (= (_ bv6 8) x88)))
(assert (not (= (_ bv4 8) x84)))
(assert (not (= (_ bv4 8) x85)))
(assert (not (= (_ bv4 8) x86)))
(assert (not (= (_ bv4 8) (_ bv5 8))))
(assert (not (= (_ bv4 8) x88)))
(assert (not (= x84 x85)))
(assert (not (= x84 x86)))
(assert (not (= x84 (_ bv5 8))))
(assert (not (= x84 x88)))
(assert (not (= x85 x86)))
(assert (not (= x85 (_ bv5 8))))
(assert (not (= x85 x88)))
(assert (not (= x86 (_ bv5 8))))
(assert (not (= x86 x88)))
(assert (not (= (_ bv5 8) x88)))
(assert (not (= (_ bv7 8) x10)))
(assert (not (= (_ bv7 8) x20)))
(assert (not (= (_ bv7 8) x30)))
(assert (not (= (_ bv7 8) x40)))
(assert (not (= (_ bv7 8) x50)))
(assert (not (= (_ bv7 8) (_ bv3 8))))
(assert (not (= (_ bv7 8) x70)))
(assert (not (= (_ bv7 8) (_ bv8 8))))
(assert (not (= x10 x20)))
(assert (not (= x10 x30)))
(assert (not (= x10 x40)))
(assert (not (= x10 x50)))
(assert (not (= x10 (_ bv3 8))))
(assert (not (= x10 x70)))
(assert (not (= x10 (_ bv8 8))))
(assert (not (= x20 x30)))
(assert (not (= x20 x40)))
(assert (not (= x20 x50)))
(assert (not (= x20 (_ bv3 8))))
(assert (not (= x20 x70)))
(assert (not (= x20 (_ bv8 8))))
(assert (not (= x30 x40)))
(assert (not (= x30 x50)))
(assert (not (= x30 (_ bv3 8))))
(assert (not (= x30 x70)))
(assert (not (= x30 (_ bv8 8))))
(assert (not (= x40 x50)))
(assert (not (= x40 (_ bv3 8))))
(assert (not (= x40 x70)))
(assert (not (= x40 (_ bv8 8))))
(assert (not (= x50 (_ bv3 8))))
(assert (not (= x50 x70)))
(assert (not (= x50 (_ bv8 8))))
(assert (not (= (_ bv3 8) x70)))
(assert (not (= (_ bv3 8) (_ bv8 8))))
(assert (not (= x70 (_ bv8 8))))
(assert (not (= x01 x11)))
(assert (not (= x01 x21)))
(assert (not (= x01 x31)))
(assert (not (= x01 (_ bv8 8))))
(assert (not (= x01 (_ bv2 8))))
(assert (not (= x01 x61)))
(assert (not (= x01 (_ bv5 8))))
(assert (not (= x01 (_ bv1 8))))
(assert (not (= x11 x21)))
(assert (not (= x11 x31)))
(assert (not (= x11 (_ bv8 8))))
(assert (not (= x11 (_ bv2 8))))
(assert (not (= x11 x61)))
(assert (not (= x11 (_ bv5 8))))
(assert (not (= x11 (_ bv1 8))))
(assert (not (= x21 x31)))
(assert (not (= x21 (_ bv8 8))))
(assert (not (= x21 (_ bv2 8))))
(assert (not (= x21 x61)))
(assert (not (= x21 (_ bv5 8))))
(assert (not (= x21 (_ bv1 8))))
(assert (not (= x31 (_ bv8 8))))
(assert (not (= x31 (_ bv2 8))))
(assert (not (= x31 x61)))
(assert (not (= x31 (_ bv5 8))))
(assert (not (= x31 (_ bv1 8))))
(assert (not (= (_ bv8 8) (_ bv2 8))))
(assert (not (= (_ bv8 8) x61)))
(assert (not (= (_ bv8 8) (_ bv5 8))))
(assert (not (= (_ bv8 8) (_ bv1 8))))
(assert (not (= (_ bv2 8) x61)))
(assert (not (= (_ bv2 8) (_ bv5 8))))
(assert (not (= (_ bv2 8) (_ bv1 8))))
(assert (not (= x61 (_ bv5 8))))
(assert (not (= x61 (_ bv1 8))))
(assert (not (= (_ bv5 8) (_ bv1 8))))
(assert (not (= x02 (_ bv5 8))))
(assert (not (= x02 x22)))
(assert (not (= x02 (_ bv9 8))))
(assert (not (= x02 (_ bv1 8))))
(assert (not (= x02 x52)))
(assert (not (= x02 (_ bv4 8))))
(assert (not (= x02 (_ bv2 8))))
(assert (not (= x02 (_ bv6 8))))
(assert (not (= (_ bv5 8) x22)))
(assert (not (= (_ bv5 8) (_ bv9 8))))
(assert (not (= (_ bv5 8) (_ bv1 8))))
(assert (not (= (_ bv5 8) x52)))
(assert (not (= (_ bv5 8) (_ bv4 8))))
(assert (not (= (_ bv5 8) (_ bv2 8))))
(assert (not (= (_ bv5 8) (_ bv6 8))))
(assert (not (= x22 (_ bv9 8))))
(assert (not (= x22 (_ bv1 8))))
(assert (not (= x22 x52)))
(assert (not (= x22 (_ bv4 8))))
(assert (not (= x22 (_ bv2 8))))
(assert (not (= x22 (_ bv6 8))))
(assert (not (= (_ bv9 8) (_ bv1 8))))
(assert (not (= (_ bv9 8) x52)))
(assert (not (= (_ bv9 8) (_ bv4 8))))
(assert (not (= (_ bv9 8) (_ bv2 8))))
(assert (not (= (_ bv9 8) (_ bv6 8))))
(assert (not (= (_ bv1 8) x52)))
(assert (not (= (_ bv1 8) (_ bv4 8))))
(assert (not (= (_ bv1 8) (_ bv2 8))))
(assert (not (= (_ bv1 8) (_ bv6 8))))
(assert (not (= x52 (_ bv4 8))))
(assert (not (= x52 (_ bv2 8))))
(assert (not (= x52 (_ bv6 8))))
(assert (not (= (_ bv4 8) (_ bv2 8))))
(assert (not (= (_ bv4 8) (_ bv6 8))))
(assert (not (= (_ bv2 8) (_ bv6 8))))
(assert (not (= x03 x13)))
(assert (not (= x03 x23)))
(assert (not (= x03 (_ bv7 8))))
(assert (not (= x03 x43)))
(assert (not (= x03 x53)))
(assert (not (= x03 x63)))
(assert (not (= x03 (_ bv6 8))))
(assert (not (= x03 (_ bv4 8))))
(assert (not (= x13 x23)))
(assert (not (= x13 (_ bv7 8))))
(assert (not (= x13 x43)))
(assert (not (= x13 x53)))
(assert (not (= x13 x63)))
(assert (not (= x13 (_ bv6 8))))
(assert (not (= x13 (_ bv4 8))))
(assert (not (= x23 (_ bv7 8))))
(assert (not (= x23 x43)))
(assert (not (= x23 x53)))
(assert (not (= x23 x63)))
(assert (not (= x23 (_ bv6 8))))
(assert (not (= x23 (_ bv4 8))))
(assert (not (= (_ bv7 8) x43)))
(assert (not (= (_ bv7 8) x53)))
(assert (not (= (_ bv7 8) x63)))
(assert (not (= (_ bv7 8) (_ bv6 8))))
(assert (not (= (_ bv7 8) (_ bv4 8))))
(assert (not (= x43 x53)))
(assert (not (= x43 x63)))
(assert (not (= x43 (_ bv6 8))))
(assert (not (= x43 (_ bv4 8))))
(assert (not (= x53 x63)))
(assert (not (= x53 (_ bv6 8))))
(assert (not (= x53 (_ bv4 8))))
(assert (not (= x63 (_ bv6 8))))
(assert (not (= x63 (_ bv4 8))))
(assert (not (= (_ bv6 8) (_ bv4 8))))
(assert (not (= x04 (_ bv9 8))))
(assert (not (= x04 x24)))
(assert (not (= x04 (_ bv5 8))))
(assert (not (= x04 (_ bv3 8))))
(assert (not (= x04 (_ bv6 8))))
(assert (not (= x04 x64)))
(assert (not (= x04 (_ bv1 8))))
(assert (not (= x04 x84)))
(assert (not (= (_ bv9 8) x24)))
(assert (not (= (_ bv9 8) (_ bv5 8))))
(assert (not (= (_ bv9 8) (_ bv3 8))))
(assert (not (= (_ bv9 8) (_ bv6 8))))
(assert (not (= (_ bv9 8) x64)))
(assert (not (= (_ bv9 8) (_ bv1 8))))
(assert (not (= (_ bv9 8) x84)))
(assert (not (= x24 (_ bv5 8))))
(assert (not (= x24 (_ bv3 8))))
(assert (not (= x24 (_ bv6 8))))
(assert (not (= x24 x64)))
(assert (not (= x24 (_ bv1 8))))
(assert (not (= x24 x84)))
(assert (not (= (_ bv5 8) (_ bv3 8))))
(assert (not (= (_ bv5 8) (_ bv6 8))))
(assert (not (= (_ bv5 8) x64)))
(assert (not (= (_ bv5 8) (_ bv1 8))))
(assert (not (= (_ bv5 8) x84)))
(assert (not (= (_ bv3 8) (_ bv6 8))))
(assert (not (= (_ bv3 8) x64)))
(assert (not (= (_ bv3 8) (_ bv1 8))))
(assert (not (= (_ bv3 8) x84)))
(assert (not (= (_ bv6 8) x64)))
(assert (not (= (_ bv6 8) (_ bv1 8))))
(assert (not (= (_ bv6 8) x84)))
(assert (not (= x64 (_ bv1 8))))
(assert (not (= x64 x84)))
(assert (not (= (_ bv1 8) x84)))
(assert (not (= (_ bv8 8) x15)))
(assert (not (= (_ bv8 8) (_ bv2 8))))
(assert (not (= (_ bv8 8) x35)))
(assert (not (= (_ bv8 8) (_ bv9 8))))
(assert (not (= (_ bv8 8) x55)))
(assert (not (= (_ bv8 8) x65)))
(assert (not (= (_ bv8 8) x75)))
(assert (not (= (_ bv8 8) x85)))
(assert (not (= x15 (_ bv2 8))))
(assert (not (= x15 x35)))
(assert (not (= x15 (_ bv9 8))))
(assert (not (= x15 x55)))
(assert (not (= x15 x65)))
(assert (not (= x15 x75)))
(assert (not (= x15 x85)))
(assert (not (= (_ bv2 8) x35)))
(assert (not (= (_ bv2 8) (_ bv9 8))))
(assert (not (= (_ bv2 8) x55)))
(assert (not (= (_ bv2 8) x65)))
(assert (not (= (_ bv2 8) x75)))
(assert (not (= (_ bv2 8) x85)))
(assert (not (= x35 (_ bv9 8))))
(assert (not (= x35 x55)))
(assert (not (= x35 x65)))
(assert (not (= x35 x75)))
(assert (not (= x35 x85)))
(assert (not (= (_ bv9 8) x55)))
(assert (not (= (_ bv9 8) x65)))
(assert (not (= (_ bv9 8) x75)))
(assert (not (= (_ bv9 8) x85)))
(assert (not (= x55 x65)))
(assert (not (= x55 x75)))
(assert (not (= x55 x85)))
(assert (not (= x65 x75)))
(assert (not (= x65 x85)))
(assert (not (= x75 x85)))
(assert (not (= x06 (_ bv8 8))))
(assert (not (= x06 (_ bv5 8))))
(assert (not (= x06 x36)))
(assert (not (= x06 x46)))
(assert (not (= x06 x56)))
(assert (not (= x06 x66)))
(assert (not (= x06 x76)))
(assert (not (= x06 x86)))
(assert (not (= (_ bv8 8) (_ bv5 8))))
(assert (not (= (_ bv8 8) x36)))
(assert (not (= (_ bv8 8) x46)))
(assert (not (= (_ bv8 8) x56)))
(assert (not (= (_ bv8 8) x66)))
(assert (not (= (_ bv8 8) x76)))
(assert (not (= (_ bv8 8) x86)))
(assert (not (= (_ bv5 8) x36)))
(assert (not (= (_ bv5 8) x46)))
(assert (not (= (_ bv5 8) x56)))
(assert (not (= (_ bv5 8) x66)))
(assert (not (= (_ bv5 8) x76)))
(assert (not (= (_ bv5 8) x86)))
(assert (not (= x36 x46)))
(assert (not (= x36 x56)))
(assert (not (= x36 x66)))
(assert (not (= x36 x76)))
(assert (not (= x36 x86)))
(assert (not (= x46 x56)))
(assert (not (= x46 x66)))
(assert (not (= x46 x76)))
(assert (not (= x46 x86)))
(assert (not (= x56 x66)))
(assert (not (= x56 x76)))
(assert (not (= x56 x86)))
(assert (not (= x66 x76)))
(assert (not (= x66 x86)))
(assert (not (= x76 x86)))
(assert (not (= (_ bv1 8) (_ bv7 8))))
(assert (not (= (_ bv1 8) x27)))
(assert (not (= (_ bv1 8) x37)))
(assert (not (= (_ bv1 8) x47)))
(assert (not (= (_ bv1 8) x57)))
(assert (not (= (_ bv1 8) x67)))
(assert (not (= (_ bv1 8) (_ bv3 8))))
(assert (not (= (_ bv1 8) (_ bv5 8))))
(assert (not (= (_ bv7 8) x27)))
(assert (not (= (_ bv7 8) x37)))
(assert (not (= (_ bv7 8) x47)))
(assert (not (= (_ bv7 8) x57)))
(assert (not (= (_ bv7 8) x67)))
(assert (not (= (_ bv7 8) (_ bv3 8))))
(assert (not (= (_ bv7 8) (_ bv5 8))))
(assert (not (= x27 x37)))
(assert (not (= x27 x47)))
(assert (not (= x27 x57)))
(assert (not (= x27 x67)))
(assert (not (= x27 (_ bv3 8))))
(assert (not (= x27 (_ bv5 8))))
(assert (not (= x37 x47)))
(assert (not (= x37 x57)))
(assert (not (= x37 x67)))
(assert (not (= x37 (_ bv3 8))))
(assert (not (= x37 (_ bv5 8))))
(assert (not (= x47 x57)))
(assert (not (= x47 x67)))
(assert (not (= x47 (_ bv3 8))))
(assert (not (= x47 (_ bv5 8))))
(assert (not (= x57 x67)))
(assert (not (= x57 (_ bv3 8))))
(assert (not (= x57 (_ bv5 8))))
(assert (not (= x67 (_ bv3 8))))
(assert (not (= x67 (_ bv5 8))))
(assert (not (= (_ bv3 8) (_ bv5 8))))
(assert (not (= (_ bv6 8) x18)))
(assert (not (= (_ bv6 8) (_ bv9 8))))
(assert (not (= (_ bv6 8) (_ bv2 8))))
(assert (not (= (_ bv6 8) x48)))
(assert (not (= (_ bv6 8) (_ bv4 8))))
(assert (not (= (_ bv6 8) x68)))
(assert (not (= (_ bv6 8) x78)))
(assert (not (= (_ bv6 8) x88)))
(assert (not (= x18 (_ bv9 8))))
(assert (not (= x18 (_ bv2 8))))
(assert (not (= x18 x48)))
(assert (not (= x18 (_ bv4 8))))
(assert (not (= x18 x68)))
(assert (not (= x18 x78)))
(assert (not (= x18 x88)))
(assert (not (= (_ bv9 8) (_ bv2 8))))
(assert (not (= (_ bv9 8) x48)))
(assert (not (= (_ bv9 8) (_ bv4 8))))
(assert (not (= (_ bv9 8) x68)))
(assert (not (= (_ bv9 8) x78)))
(assert (not (= (_ bv9 8) x88)))
(assert (not (= (_ bv2 8) x48)))
(assert (not (= (_ bv2 8) (_ bv4 8))))
(assert (not (= (_ bv2 8) x68)))
(assert (not (= (_ bv2 8) x78)))
(assert (not (= (_ bv2 8) x88)))
(assert (not (= x48 (_ bv4 8))))
(assert (not (= x48 x68)))
(assert (not (= x48 x78)))
(assert (not (= x48 x88)))
(assert (not (= (_ bv4 8) x68)))
(assert (not (= (_ bv4 8) x78)))
(assert (not (= (_ bv4 8) x88)))
(assert (not (= x68 x78)))
(assert (not (= x68 x88)))
(assert (not (= x78 x88)))
(assert (not (= (_ bv7 8) x01)))
(assert (not (= (_ bv7 8) x02)))
(assert (not (= (_ bv7 8) x10)))
(assert (not (= (_ bv7 8) x11)))
(assert (not (= (_ bv7 8) (_ bv5 8))))
(assert (not (= (_ bv7 8) x20)))
(assert (not (= (_ bv7 8) x21)))
(assert (not (= (_ bv7 8) x22)))
(assert (not (= x01 x02)))
(assert (not (= x01 x10)))
(assert (not (= x01 x11)))
(assert (not (= x01 (_ bv5 8))))
(assert (not (= x01 x20)))
(assert (not (= x01 x21)))
(assert (not (= x01 x22)))
(assert (not (= x02 x10)))
(assert (not (= x02 x11)))
(assert (not (= x02 (_ bv5 8))))
(assert (not (= x02 x20)))
(assert (not (= x02 x21)))
(assert (not (= x02 x22)))
(assert (not (= x10 x11)))
(assert (not (= x10 (_ bv5 8))))
(assert (not (= x10 x20)))
(assert (not (= x10 x21)))
(assert (not (= x10 x22)))
(assert (not (= x11 (_ bv5 8))))
(assert (not (= x11 x20)))
(assert (not (= x11 x21)))
(assert (not (= x11 x22)))
(assert (not (= (_ bv5 8) x20)))
(assert (not (= (_ bv5 8) x21)))
(assert (not (= (_ bv5 8) x22)))
(assert (not (= x20 x21)))
(assert (not (= x20 x22)))
(assert (not (= x21 x22)))
(assert (not (= x03 x04)))
(assert (not (= x03 (_ bv8 8))))
(assert (not (= x03 x13)))
(assert (not (= x03 (_ bv9 8))))
(assert (not (= x03 x15)))
(assert (not (= x03 x23)))
(assert (not (= x03 x24)))
(assert (not (= x03 (_ bv2 8))))
(assert (not (= x04 (_ bv8 8))))
(assert (not (= x04 x13)))
(assert (not (= x04 (_ bv9 8))))
(assert (not (= x04 x15)))
(assert (not (= x04 x23)))
(assert (not (= x04 x24)))
(assert (not (= x04 (_ bv2 8))))
(assert (not (= (_ bv8 8) x13)))
(assert (not (= (_ bv8 8) (_ bv9 8))))
(assert (not (= (_ bv8 8) x15)))
(assert (not (= (_ bv8 8) x23)))
(assert (not (= (_ bv8 8) x24)))
(assert (not (= (_ bv8 8) (_ bv2 8))))
(assert (not (= x13 (_ bv9 8))))
(assert (not (= x13 x15)))
(assert (not (= x13 x23)))
(assert (not (= x13 x24)))
(assert (not (= x13 (_ bv2 8))))
(assert (not (= (_ bv9 8) x15)))
(assert (not (= (_ bv9 8) x23)))
(assert (not (= (_ bv9 8) x24)))
(assert (not (= (_ bv9 8) (_ bv2 8))))
(assert (not (= x15 x23)))
(assert (not (= x15 x24)))
(assert (not (= x15 (_ bv2 8))))
(assert (not (= x23 x24)))
(assert (not (= x23 (_ bv2 8))))
(assert (not (= x24 (_ bv2 8))))
(assert (not (= x06 (_ bv1 8))))
(assert (not (= x06 (_ bv6 8))))
(assert (not (= x06 (_ bv8 8))))
(assert (not (= x06 (_ bv7 8))))
(assert (not (= x06 x18)))
(assert (not (= x06 (_ bv5 8))))
(assert (not (= x06 x27)))
(assert (not (= x06 (_ bv9 8))))
(assert (not (= (_ bv1 8) (_ bv6 8))))
(assert (not (= (_ bv1 8) (_ bv8 8))))
(assert (not (= (_ bv1 8) (_ bv7 8))))
(assert (not (= (_ bv1 8) x18)))
(assert (not (= (_ bv1 8) (_ bv5 8))))
(assert (not (= (_ bv1 8) x27)))
(assert (not (= (_ bv1 8) (_ bv9 8))))
(assert (not (= (_ bv6 8) (_ bv8 8))))
(assert (not (= (_ bv6 8) (_ bv7 8))))
(assert (not (= (_ bv6 8) x18)))
(assert (not (= (_ bv6 8) (_ bv5 8))))
(assert (not (= (_ bv6 8) x27)))
(assert (not (= (_ bv6 8) (_ bv9 8))))
(assert (not (= (_ bv8 8) (_ bv7 8))))
(assert (not (= (_ bv8 8) x18)))
(assert (not (= (_ bv8 8) (_ bv5 8))))
(assert (not (= (_ bv8 8) x27)))
(assert (not (= (_ bv8 8) (_ bv9 8))))
(assert (not (= (_ bv7 8) x18)))
(assert (not (= (_ bv7 8) (_ bv5 8))))
(assert (not (= (_ bv7 8) x27)))
(assert (not (= (_ bv7 8) (_ bv9 8))))
(assert (not (= x18 (_ bv5 8))))
(assert (not (= x18 x27)))
(assert (not (= x18 (_ bv9 8))))
(assert (not (= (_ bv5 8) x27)))
(assert (not (= (_ bv5 8) (_ bv9 8))))
(assert (not (= x27 (_ bv9 8))))
(assert (not (= x30 x31)))
(assert (not (= x30 (_ bv9 8))))
(assert (not (= x30 x40)))
(assert (not (= x30 (_ bv8 8))))
(assert (not (= x30 (_ bv1 8))))
(assert (not (= x30 x50)))
(assert (not (= x30 (_ bv2 8))))
(assert (not (= x30 x52)))
(assert (not (= x31 (_ bv9 8))))
(assert (not (= x31 x40)))
(assert (not (= x31 (_ bv8 8))))
(assert (not (= x31 (_ bv1 8))))
(assert (not (= x31 x50)))
(assert (not (= x31 (_ bv2 8))))
(assert (not (= x31 x52)))
(assert (not (= (_ bv9 8) x40)))
(assert (not (= (_ bv9 8) (_ bv8 8))))
(assert (not (= (_ bv9 8) (_ bv1 8))))
(assert (not (= (_ bv9 8) x50)))
(assert (not (= (_ bv9 8) (_ bv2 8))))
(assert (not (= (_ bv9 8) x52)))
(assert (not (= x40 (_ bv8 8))))
(assert (not (= x40 (_ bv1 8))))
(assert (not (= x40 x50)))
(assert (not (= x40 (_ bv2 8))))
(assert (not (= x40 x52)))
(assert (not (= (_ bv8 8) (_ bv1 8))))
(assert (not (= (_ bv8 8) x50)))
(assert (not (= (_ bv8 8) (_ bv2 8))))
(assert (not (= (_ bv8 8) x52)))
(assert (not (= (_ bv1 8) x50)))
(assert (not (= (_ bv1 8) (_ bv2 8))))
(assert (not (= (_ bv1 8) x52)))
(assert (not (= x50 (_ bv2 8))))
(assert (not (= x50 x52)))
(assert (not (= (_ bv2 8) x52)))
(assert (not (= (_ bv7 8) (_ bv5 8))))
(assert (not (= (_ bv7 8) x35)))
(assert (not (= (_ bv7 8) x43)))
(assert (not (= (_ bv7 8) (_ bv3 8))))
(assert (not (= (_ bv7 8) (_ bv9 8))))
(assert (not (= (_ bv7 8) x53)))
(assert (not (= (_ bv7 8) (_ bv6 8))))
(assert (not (= (_ bv7 8) x55)))
(assert (not (= (_ bv5 8) x35)))
(assert (not (= (_ bv5 8) x43)))
(assert (not (= (_ bv5 8) (_ bv3 8))))
(assert (not (= (_ bv5 8) (_ bv9 8))))
(assert (not (= (_ bv5 8) x53)))
(assert (not (= (_ bv5 8) (_ bv6 8))))
(assert (not (= (_ bv5 8) x55)))
(assert (not (= x35 x43)))
(assert (not (= x35 (_ bv3 8))))
(assert (not (= x35 (_ bv9 8))))
(assert (not (= x35 x53)))
(assert (not (= x35 (_ bv6 8))))
(assert (not (= x35 x55)))
(assert (not (= x43 (_ bv3 8))))
(assert (not (= x43 (_ bv9 8))))
(assert (not (= x43 x53)))
(assert (not (= x43 (_ bv6 8))))
(assert (not (= x43 x55)))
(assert (not (= (_ bv3 8) (_ bv9 8))))
(assert (not (= (_ bv3 8) x53)))
(assert (not (= (_ bv3 8) (_ bv6 8))))
(assert (not (= (_ bv3 8) x55)))
(assert (not (= (_ bv9 8) x53)))
(assert (not (= (_ bv9 8) (_ bv6 8))))
(assert (not (= (_ bv9 8) x55)))
(assert (not (= x53 (_ bv6 8))))
(assert (not (= x53 x55)))
(assert (not (= (_ bv6 8) x55)))
(assert (not (= x36 x37)))
(assert (not (= x36 (_ bv2 8))))
(assert (not (= x36 x46)))
(assert (not (= x36 x47)))
(assert (not (= x36 x48)))
(assert (not (= x36 x56)))
(assert (not (= x36 x57)))
(assert (not (= x36 (_ bv4 8))))
(assert (not (= x37 (_ bv2 8))))
(assert (not (= x37 x46)))
(assert (not (= x37 x47)))
(assert (not (= x37 x48)))
(assert (not (= x37 x56)))
(assert (not (= x37 x57)))
(assert (not (= x37 (_ bv4 8))))
(assert (not (= (_ bv2 8) x46)))
(assert (not (= (_ bv2 8) x47)))
(assert (not (= (_ bv2 8) x48)))
(assert (not (= (_ bv2 8) x56)))
(assert (not (= (_ bv2 8) x57)))
(assert (not (= (_ bv2 8) (_ bv4 8))))
(assert (not (= x46 x47)))
(assert (not (= x46 x48)))
(assert (not (= x46 x56)))
(assert (not (= x46 x57)))
(assert (not (= x46 (_ bv4 8))))
(assert (not (= x47 x48)))
(assert (not (= x47 x56)))
(assert (not (= x47 x57)))
(assert (not (= x47 (_ bv4 8))))
(assert (not (= x48 x56)))
(assert (not (= x48 x57)))
(assert (not (= x48 (_ bv4 8))))
(assert (not (= x56 x57)))
(assert (not (= x56 (_ bv4 8))))
(assert (not (= x57 (_ bv4 8))))
(assert (not (= (_ bv3 8) x61)))
(assert (not (= (_ bv3 8) (_ bv4 8))))
(assert (not (= (_ bv3 8) x70)))
(assert (not (= (_ bv3 8) (_ bv5 8))))
(assert (not (= (_ bv3 8) (_ bv2 8))))
(assert (not (= (_ bv3 8) (_ bv8 8))))
(assert (not (= (_ bv3 8) (_ bv1 8))))
(assert (not (= (_ bv3 8) (_ bv6 8))))
(assert (not (= x61 (_ bv4 8))))
(assert (not (= x61 x70)))
(assert (not (= x61 (_ bv5 8))))
(assert (not (= x61 (_ bv2 8))))
(assert (not (= x61 (_ bv8 8))))
(assert (not (= x61 (_ bv1 8))))
(assert (not (= x61 (_ bv6 8))))
(assert (not (= (_ bv4 8) x70)))
(assert (not (= (_ bv4 8) (_ bv5 8))))
(assert (not (= (_ bv4 8) (_ bv2 8))))
(assert (not (= (_ bv4 8) (_ bv8 8))))
(assert (not (= (_ bv4 8) (_ bv1 8))))
(assert (not (= (_ bv4 8) (_ bv6 8))))
(assert (not (= x70 (_ bv5 8))))
(assert (not (= x70 (_ bv2 8))))
(assert (not (= x70 (_ bv8 8))))
(assert (not (= x70 (_ bv1 8))))
(assert (not (= x70 (_ bv6 8))))
(assert (not (= (_ bv5 8) (_ bv2 8))))
(assert (not (= (_ bv5 8) (_ bv8 8))))
(assert (not (= (_ bv5 8) (_ bv1 8))))
(assert (not (= (_ bv5 8) (_ bv6 8))))
(assert (not (= (_ bv2 8) (_ bv8 8))))
(assert (not (= (_ bv2 8) (_ bv1 8))))
(assert (not (= (_ bv2 8) (_ bv6 8))))
(assert (not (= (_ bv8 8) (_ bv1 8))))
(assert (not (= (_ bv8 8) (_ bv6 8))))
(assert (not (= (_ bv1 8) (_ bv6 8))))
(assert (not (= x63 x64)))
(assert (not (= x63 x65)))
(assert (not (= x63 (_ bv6 8))))
(assert (not (= x63 (_ bv1 8))))
(assert (not (= x63 x75)))
(assert (not (= x63 (_ bv4 8))))
(assert (not (= x63 x84)))
(assert (not (= x63 x85)))
(assert (not (= x64 x65)))
(assert (not (= x64 (_ bv6 8))))
(assert (not (= x64 (_ bv1 8))))
(assert (not (= x64 x75)))
(assert (not (= x64 (_ bv4 8))))
(assert (not (= x64 x84)))
(assert (not (= x64 x85)))
(assert (not (= x65 (_ bv6 8))))
(assert (not (= x65 (_ bv1 8))))
(assert (not (= x65 x75)))
(assert (not (= x65 (_ bv4 8))))
(assert (not (= x65 x84)))
(assert (not (= x65 x85)))
(assert (not (= (_ bv6 8) (_ bv1 8))))
(assert (not (= (_ bv6 8) x75)))
(assert (not (= (_ bv6 8) (_ bv4 8))))
(assert (not (= (_ bv6 8) x84)))
(assert (not (= (_ bv6 8) x85)))
(assert (not (= (_ bv1 8) x75)))
(assert (not (= (_ bv1 8) (_ bv4 8))))
(assert (not (= (_ bv1 8) x84)))
(assert (not (= (_ bv1 8) x85)))
(assert (not (= x75 (_ bv4 8))))
(assert (not (= x75 x84)))
(assert (not (= x75 x85)))
(assert (not (= (_ bv4 8) x84)))
(assert (not (= (_ bv4 8) x85)))
(assert (not (= x84 x85)))
(assert (not (= x66 x67)))
(assert (not (= x66 x68)))
(assert (not (= x66 x76)))
(assert (not (= x66 (_ bv3 8))))
(assert (not (= x66 x78)))
(assert (not (= x66 x86)))
(assert (not (= x66 (_ bv5 8))))
(assert (not (= x66 x88)))
(assert (not (= x67 x68)))
(assert (not (= x67 x76)))
(assert (not (= x67 (_ bv3 8))))
(assert (not (= x67 x78)))
(assert (not (= x67 x86)))
(assert (not (= x67 (_ bv5 8))))
(assert (not (= x67 x88)))
(assert (not (= x68 x76)))
(assert (not (= x68 (_ bv3 8))))
(assert (not (= x68 x78)))
(assert (not (= x68 x86)))
(assert (not (= x68 (_ bv5 8))))
(assert (not (= x68 x88)))
(assert (not (= x76 (_ bv3 8))))
(assert (not (= x76 x78)))
(assert (not (= x76 x86)))
(assert (not (= x76 (_ bv5 8))))
(assert (not (= x76 x88)))
(assert (not (= (_ bv3 8) x78)))
(assert (not (= (_ bv3 8) x86)))
(assert (not (= (_ bv3 8) (_ bv5 8))))
(assert (not (= (_ bv3 8) x88)))
(assert (not (= x78 x86)))
(assert (not (= x78 (_ bv5 8))))
(assert (not (= x78 x88)))
(assert (not (= x86 (_ bv5 8))))
(assert (not (= x86 x88)))
(assert (not (= (_ bv5 8) x88)))
(check-sat)
(exit)
